Example_III/other_models/102/model_102_Log_1_cores.log

Gurobi 9.0.2 (linux64) logging started Mon Sep 14 07:12:48 2020

Changed value of parameter LogFile to model_102_Log_1_cores.log
   Prev:   Default: 
Changed value of parameter Threads to 1
   Prev: 0  Min: 0  Max: 1024  Default: 0
Gurobi Optimizer version 9.0.2 build v9.0.2rc0 (linux64)
Optimize a model with 10711 rows, 38880 columns and 175049 nonzeros
Model fingerprint: 0x70a78691
Variable types: 0 continuous, 38880 integer (38880 binary)
Coefficient statistics:
  Matrix range     [1e+00, 6e+01]
  Objective range  [1e+00, 1e+00]
  Bounds range     [1e+00, 1e+00]
  RHS range        [1e+00, 3e+02]
Presolve removed 661 rows and 721 columns
Presolve time: 0.42s
Presolved: 10050 rows, 38159 columns, 163615 nonzeros
Variable types: 0 continuous, 38159 integer (38159 binary)

Root relaxation: objective 1.000000e+00, 3572 iterations, 0.18 seconds

    Nodes    |    Current Node    |     Objective Bounds      |     Work
 Expl Unexpl |  Obj  Depth IntInf | Incumbent    BestBd   Gap | It/Node Time

     0     0    1.00000    0  486          -    1.00000      -     -    1s
     0     0    1.00000    0  523          -    1.00000      -     -    2s
     0     0    1.00000    0  501          -    1.00000      -     -    2s
     0     0    1.00000    0  227          -    1.00000      -     -    3s
     0     0    1.00000    0  281          -    1.00000      -     -    3s
     0     0    1.00000    0  206          -    1.00000      -     -    4s
     0     0    1.00000    0  244          -    1.00000      -     -    4s
     0     0    1.00000    0  216          -    1.00000      -     -    5s
     0     0    1.00000    0  315          -    1.00000      -     -    5s
     0     0    1.00000    0  225          -    1.00000      -     -    5s
     0     0    1.00000    0  225          -    1.00000      -     -    6s
     0     2    1.00000    0  225          -    1.00000      -     -    7s
   142    15    1.00000   41  351          -    1.00000      -   264   10s
   306    18 infeasible   55               -    1.00000      -   522   15s
   572    30    1.00000   69  481          -    1.00000      -   427   20s
   828    67    1.00000   75  477          -    1.00000      -   401   25s
  1072   217    1.00000  161  225          -    1.00000      -   381   32s
  1076   220    1.00000   67  269          -    1.00000      -   379   35s
  1085   226    1.00000  119  191          -    1.00000      -   376   40s
  1089   228    1.00000  158  241          -    1.00000      -   375   45s
  1093   231    1.00000    5  186          -    1.00000      -   374   50s
  1105   229    1.00000   17  222          -    1.00000      -   332   55s
  1176   209    1.00000   32  224          -    1.00000      -   318   60s
  1287   231    1.00000   73  246          -    1.00000      -   296   65s
  1426   324    1.00000  127  183          -    1.00000      -   271   70s
  1593   435    1.00000  210  118          -    1.00000      -   253   75s
  1705   510    1.28037  281   87          -    1.00000      -   247   80s
  1939   715    2.08472  363   91          -    1.00000      -   222   85s
  2198   974    3.02083  462  106          -    1.00000      -   202   90s
H 2425  1197                       5.0000000    1.00000  80.0%   186   92s
H 2425   839                       4.0000000    1.00000  75.0%   186   92s
  2529   916    2.12500  240  102    4.00000    1.00000  75.0%   180   95s
  2722  1041    1.30484  233  125    4.00000    1.00000  75.0%   169  100s
  2910  1155    1.00000  179   97    4.00000    1.00000  75.0%   160  105s
  2958  1203    1.00000  227  123    4.00000    1.00000  75.0%   158  111s
  2992  1237    1.00000  261  119    4.00000    1.00000  75.0%   156  116s
H 3019   917                       3.0000000    1.00000  66.7%   155  117s
H 3100   501                       2.0000000    1.00000  50.0%   153  119s
  3102   498    1.00000  185  225    2.00000    1.00000  50.0%   153  124s
  3104   499    1.00000  150  385    2.00000    1.00000  50.0%   153  126s
  3107   501    1.00000   50  213    2.00000    1.00000  50.0%   152  132s
  3109   503    1.00000  121   73    2.00000    1.00000  50.0%   152  135s
  3114   506    1.00000  183  224    2.00000    1.00000  50.0%   152  140s
  3117   508    1.00000  158  146    2.00000    1.00000  50.0%   152  146s
  3120   510    1.00000  142  244    2.00000    1.00000  50.0%   152  150s
  3123   512    1.00000  222  150    2.00000    1.00000  50.0%   152  158s
  3125   513    1.00000  158  123    2.00000    1.00000  50.0%   151  160s
  3132   520    1.00000   25  107    2.00000    1.00000  50.0%   250  165s
  3169   508    1.00000   44   91    2.00000    1.00000  50.0%   255  170s
  3251   551    1.00000   85   34    2.00000    1.00000  50.0%   250  175s
* 3272   444              95       1.0000000    1.00000  0.00%   249  175s

Cutting planes:
  Gomory: 4
  Cover: 68
  Clique: 129
  MIR: 7
  StrongCG: 6
  Flow cover: 57
  Inf proof: 1
  Zero half: 20
  RLT: 6

Explored 3273 nodes (1364284 simplex iterations) in 175.47 seconds
Thread count was 1 (of 80 available processors)

Solution count 5: 1 2 3 ... 5

Optimal solution found (tolerance 1.00e-04)
Best objective 1.000000000000e+00, best bound 1.000000000000e+00, gap 0.0000%
